# Objective value = 3.0514592719426787e+02
x[0] 0
x[1] 1
x[2] 1
x[3] 0
x[4] 0
x[5] 1
x[6] 0
x[7] 0
x[8] 0
x[9] 1
x[10] 0
x[11] 0
x[12] 1
x[13] 0
x[14] 0
x[15] 0
x[16] 0
x[17] 0
x[18] 1
x[19] 0
x[20] 1
x[21] 0
x[22] 0
x[23] 1
x[24] 0
x[25] 1
x[26] 1
x[27] 0
x[28] 0
x[29] 1
x[30] 0
x[31] 1
x[32] 0
x[33] 1
x[34] 0
x[35] 0
x[36] 1
x[37] 1
x[38] 0
x[39] 0
x[40] 1
x[41] 0
x[42] 1
x[43] 0
x[44] 0
x[45] 0
x[46] 1
x[47] 0
x[48] 0
x[49] 1
x[50] 1
x[51] 0
x[52] 1
x[53] 0
x[54] 1
x[55] 0
x[56] 1
x[57] 0
x[58] 1
x[59] 1
x[60] 0
x[61] 1
x[62] 0
x[63] 0
x[64] 0
x[65] 0
x[66] 0
x[67] 1
x[68] 1
x[69] 0
x[70] 0
x[71] 0
x[72] 0
x[73] 0
x[74] 0
x[75] 0
x[76] 1
x[77] 1
x[78] 1
x[79] 0
x[80] 0
x[81] 1
x[82] 1
x[83] 1
x[84] 1
x[85] 1
x[86] 1
x[87] 0
x[88] 0
x[89] 0
x[90] 0
x[91] 0
x[92] 1
x[93] 1
x[94] 1
x[95] 0
x[96] 0
x[97] 0
x[98] 1
x[99] 1
x[100] 1
x[101] 0
x[102] 1
x[103] 1
x[104] 1
x[105] 0
x[106] 0
x[107] 1
x[108] 1
x[109] 0
x[110] 0
x[111] 0
x[112] 1
x[113] 1
x[114] 1
x[115] 1
x[116] 0
x[117] 0
x[118] 0
x[119] 1
x[120] 0
x[121] 1
x[122] 0
x[123] 0
x[124] 1
x[125] 0
x[126] 0
x[127] 0
x[128] 0
x[129] 0
x[130] 0
x[131] 1
x[132] 1
x[133] 0
x[134] 0
x[135] 1
x[136] 1
x[137] 1
x[138] 1
x[139] 1
x[140] 1
x[141] 0
x[142] 1
x[143] 1
x[144] 0
x[145] 0
x[146] 0
x[147] 0
x[148] 0
x[149] 1
x[150] 0
x[151] 0
x[152] 0
x[153] 0
x[154] 0
x[155] 1
x[156] 0
x[157] 1
x[158] 0
x[159] 1
x[160] 0
x[161] 0
x[162] 1
x[163] 1
x[164] 1
x[165] 1
x[166] 1
x[167] 1
x[168] 0
x[169] 0
x[170] 1
x[171] 0
x[172] 1
x[173] 0
x[174] 0
x[175] 1
x[176] 1
x[177] 0
x[178] 1
x[179] 0
x[180] 1
x[181] 1
x[182] 0
x[183] 1
x[184] 1
x[185] 0
x[186] 0
x[187] 0
x[188] 0
x[189] 0
x[190] 0
x[191] 0
x[192] 0
x[193] 0
x[194] 1
x[195] 1
x[196] 1
x[197] 1
x[198] 1
x[199] 1
x[200] 0
x[201] 0
x[202] 0
x[203] 0
x[204] 0
x[205] 0
x[206] 1
x[207] 1
x[208] 1
x[209] 1
x[210] 1
x[211] 1
x[212] 1
x[213] 1
x[214] 0
x[215] 1
x[216] 0
x[217] 0
x[218] 0
x[219] 1
x[220] 0
x[221] 1
x[222] 1
x[223] 1
x[224] 0
x[225] 1
x[226] 0
x[227] 1
x[228] 0
x[229] 1
x[230] 0
x[231] 1
x[232] 1
x[233] 1
x[234] 0
x[235] 0
x[236] 0
x[237] 1
x[238] 0
x[239] 0
x[240] 1
x[241] 1
x[242] 1
x[243] 0
x[244] 1
x[245] 1
x[246] 0
x[247] 0
x[248] 0
x[249] 1
x[250] 0
x[251] 0
x[252] 1
x[253] 1
x[254] 1
x[255] 0
x[256] 1
x[257] 0
x[258] 1
x[259] 1
x[260] 1
x[261] 0
x[262] 0
x[263] 1
x[264] 0
x[265] 0
x[266] 0
x[267] 1
x[268] 1
x[269] 1
x[270] 1
x[271] 1
x[272] 0
x[273] 0
x[274] 1
x[275] 0
x[276] 1
x[277] 0
x[278] 0
x[279] 1
x[280] 1
x[281] 1
x[282] 1
x[283] 1
x[284] 1
x[285] 0
x[286] 0
x[287] 0
x[288] 1
x[289] 1
x[290] 1
x[291] 1
x[292] 0
x[293] 1
x[294] 1
x[295] 1
x[296] 0
x[297] 0
x[298] 0
x[299] 1
x[300] 0
x[301] 0
x[302] 0
x[303] 1
x[304] 1
x[305] 1
x[306] 0
x[307] 1
x[308] 1
x[309] 0
x[310] 1
x[311] 0
x[312] 1
x[313] 1
x[314] 1
x[315] 1
x[316] 0
x[317] 1
x[318] 1
x[319] 0
x[320] 1
x[321] 0
x[322] 0
x[323] 0
x[324] 1
x[325] 0
x[326] 9.9999930417088445e-01
x[327] 0
x[328] 1
x[329] 1
x[330] 0
x[331] 0
x[332] 0
x[333] 0
x[334] 0
x[335] 1
x[336] 1
x[337] 0
x[338] 1
x[339] 0
x[340] 1
x[341] 0
x[342] 0
x[343] 1
x[344] 1
x[345] 0
x[346] 0
x[347] 1
x[348] 0
x[349] 1
x[350] 0
x[351] 0
x[352] 1
x[353] 1
x[354] 1
x[355] 1
x[356] 0
x[357] 1
x[358] 0
x[359] 1
x[360] 0
x[361] 0
x[362] 0
x[363] 0
x[364] 1
x[365] 0
x[366] 1
x[367] 0
x[368] 0
x[369] 0
x[370] 1
x[371] 0
x[372] 1
x[373] 1
x[374] 0
x[375] 0
x[376] 0
x[377] 0
x[378] 0
x[379] 0
x[380] 0
x[381] 1
x[382] 0
x[383] 0
x[384] 0
x[385] 0
x[386] 0
x[387] 1
x[388] 1
x[389] 1
x[390] 1
x[391] 1
x[392] 0
x[393] 0
x[394] 1
x[395] 1
x[396] 1
x[397] 1
x[398] 1
x[399] 0
x[400] 0
x[401] 0
x[402] 1
x[403] 0
x[404] 1
x[405] 0
x[406] 1
x[407] 0
x[408] 1
x[409] 1
x[410] 0
x[411] 1
x[412] 0
x[413] 0
x[414] 0
x[415] 1
x[416] 0
x[417] 1
x[418] 1
x[419] 1
x[420] 0
x[421] 1
x[422] 0
x[423] 0
x[424] 1
x[425] 0
x[426] 1
x[427] 0
x[428] 1
x[429] 0
x[430] 1
x[431] 1
x[432] 0
x[433] 1
x[434] 1
x[435] 1
x[436] 1
x[437] 0
x[438] 1
x[439] 0
x[440] 0
x[441] 0
x[442] 1
x[443] 0
x[444] 1
x[445] 1
x[446] 1
x[447] 0
x[448] 0
x[449] 0
x[450] 0
x[451] 0
x[452] 0
x[453] 1
x[454] 0
x[455] 1
x[456] 0
x[457] 0
x[458] 1
x[459] 0
x[460] 0
x[461] 0
x[462] 1
x[463] 0
x[464] 1
x[465] 0
x[466] 1
x[467] 1
x[468] 1
x[469] 0
x[470] 1
x[471] 0
x[472] 0
x[473] 0
x[474] 0
x[475] 1
x[476] 1
x[477] 1
x[478] 0
x[479] 0
x[480] 1
x[481] 0
x[482] 0
x[483] 1
x[484] 0
x[485] 1
x[486] 1
x[487] 0
x[488] 0
x[489] 0
x[490] 0
x[491] 0
x[492] 1
x[493] 1
x[494] 0
x[495] 0
x[496] 0
x[497] 1
x[498] 0
x[499] 0
x[500] 1
x[501] 0
x[502] 1
x[503] 0
x[504] 1
x[505] 0
x[506] 1
x[507] 1
x[508] 1
x[509] 0
x[510] 1
x[511] 0
x[512] 1
x[513] 0
x[514] 1
x[515] 0
x[516] 1
x[517] 1
x[518] 0
x[519] 1
x[520] 1
x[521] 1
x[522] 1
x[523] 1
x[524] 0
x[525] 0
x[526] 1
x[527] 0
x[528] 0
x[529] 1
x[530] 1
x[531] 0
x[532] 1
x[533] 0
x[534] 0
x[535] 1
x[536] 0
x[537] 0
x[538] 1
x[539] 1
x[540] 0
x[541] 0
x[542] 0
x[543] 1
x[544] 0
x[545] 0
x[546] 0
x[547] 0
x[548] 1
x[549] 1
x[550] 1
x[551] 0
x[552] 0
x[553] 1
x[554] 0
x[555] 0
x[556] 0
x[557] 1
x[558] 1
x[559] 1
x[560] 1
x[561] 1
x[562] 0
x[563] 1
x[564] 1
x[565] 0
x[566] 0
x[567] 0
x[568] 0
x[569] 1
x[570] 0
x[571] 1
x[572] 0
x[573] 1
x[574] 1
x[575] 0
x[576] 1
x[577] 1
x[578] 0
x[579] 0
x[580] 1
x[581] 0
x[582] 1
x[583] 0
x[584] 1
x[585] 1
x[586] 0
x[587] 1
x[588] 0
x[589] 0
x[590] 0
x[591] 0
x[592] 1
x[593] 0
x[594] 0
x[595] 1
x[596] 0
x[597] 1
x[598] 0
x[599] 1
x[600] 1
x[601] 1
x[602] 0
x[603] 0
x[604] 1
x[605] 6.9453689684887851e-07
x[606] 0
x[607] 0
x[608] 0
x[609] 0
x[610] 1
x[611] 0
x[612] 1
x[613] 0
x[614] 1
x[615] 1
x[616] 1
x[617] 1
x[618] 1
x[619] 1
x[620] 0
x[621] 0
x[622] 1
x[623] 0
x[624] 0
x[625] 1
x[626] 1
x[627] 1
x[628] 1
x[629] 0
x[630] 0
x[631] 1
x[632] 1
x[633] 1
x[634] 0
x[635] 1
x[636] 0
x[637] 0
x[638] 1
x[639] 0
x[640] 1
x[641] 0
x[642] 0
x[643] 0
x[644] 1
x[645] 1
x[646] 0
x[647] 1
x[648] 0
x[649] 1
x[650] 0
x[651] 1
x[652] 1
x[653] 0
x[654] 0
x[655] 0
x[656] 1
x[657] 0
x[658] 0
x[659] 0
x[660] 0
x[661] 0
x[662] 0
x[663] 1
x[664] 1
x[665] 1
x[666] 0
x[667] 1
x[668] 1
x[669] 0
x[670] 0
x[671] 1
x[672] 0
x[673] 0
x[674] 1
x[675] 0
x[676] 0
x[677] 0
x[678] 1
x[679] 0
x[680] 1
x[681] 0
x[682] 0
x[683] 1
x[684] 0
x[685] 1
x[686] 0
x[687] 0
x[688] 0
x[689] 0
x[690] 1
x[691] 0
x[692] 1
x[693] 1
x[694] 0
x[695] 0
x[696] 1
x[697] 0
x[698] 1
x[699] 1
x[700] 1
x[701] 1
x[702] 0
x[703] 1
x[704] 0
x[705] 1
x[706] 1
x[707] 0
x[708] 1
x[709] 1
x[710] 0
x[711] 0
x[712] 1
x[713] 0
x[714] 0
x[715] 0
x[716] 1
x[717] 1
x[718] 0
x[719] 1
x[720] 1
x[721] 0
x[722] 1
x[723] 1
x[724] 0
x[725] 0
x[726] 0
x[727] 1
x[728] 1
x[729] 0
x[730] 1
x[731] 1
x[732] 0
x[733] 1
x[734] 0
x[735] 0
x[736] 1
x[737] 0
x[738] 1
x[739] 1
x[740] 1
x[741] 1
x[742] 1
x[743] 1
x[744] 0
x[745] 1
x[746] 0
x[747] 1
x[748] 1
x[749] 0
x[750] 0
x[751] 1
x[752] 0
x[753] 0
x[754] 0
x[755] 1
x[756] 0
x[757] 0
x[758] 0
x[759] 0
x[760] 1
x[761] 1
x[762] 1
x[763] 0
x[764] 1
x[765] 1
x[766] 0
x[767] 0
x[768] 0
x[769] 1
x[770] 1
x[771] 0
x[772] 1
x[773] 0
x[774] 1
x[775] 0
x[776] 1
x[777] 1
x[778] 0
x[779] 1
x[780] 0
x[781] 1
x[782] 0
x[783] 0
x[784] 1
x[785] 1
x[786] 1
x[787] 1
x[788] 0
x[789] 1
x[790] 1
x[791] 1
x[792] 1
x[793] 0
x[794] 0
x[795] 0
x[796] 0
x[797] 0
x[798] 1
x[799] 0
x[800] 0
x[801] 1
x[802] 1
x[803] 1
x[804] 1
x[805] 0
x[806] 1
x[807] 0
x[808] 1
x[809] 0
x[810] 1
x[811] 0
x[812] 0
x[813] 1
x[814] 0
x[815] 0
x[816] 0
x[817] 1
x[818] 1
x[819] 1
x[820] 0
x[821] 1
x[822] 1
x[823] 1
x[824] 1
x[825] 0
x[826] 0
x[827] 1
x[828] 1
x[829] 0
x[830] 1
x[831] 1
x[832] 1
x[833] 0
x[834] 1
x[835] 0
x[836] 0
x[837] 0
x[838] 1
x[839] 1
x[840] 1
x[841] 1
x[842] 0
x[843] 0
x[844] 1
x[845] 1
x[846] 0
x[847] 1
x[848] 0
x[849] 1
x[850] 0
x[851] 0
x[852] 0
x[853] 1
x[854] 0
x[855] 1
x[856] 0
x[857] 0
x[858] 0
x[859] 0
x[860] 0
x[861] 0
x[862] 1
x[863] 0
x[864] 1
x[865] 1
x[866] 1
x[867] 1
x[868] 1
x[869] 1
x[870] 1
x[871] 0
x[872] 0
x[873] 0
x[874] 0
x[875] 1
x[876] 0
x[877] 1
x[878] 0
x[879] 1
x[880] 0
x[881] 0
x[882] 0
x[883] 1
x[884] 1
x[885] 0
x[886] 1
x[887] 0
x[888] 0
x[889] 1
x[890] 0
x[891] 1
x[892] 1
x[893] 1
x[894] 0
x[895] 0
x[896] 1
x[897] 1
x[898] 0
x[899] 1
x[900] 0
x[901] 0
x[902] 0
x[903] 0
x[904] 1
x[905] 0
x[906] 1
x[907] 1
x[908] 1
x[909] 0
x[910] 1
x[911] 0
x[912] 1
x[913] 1
x[914] 1
x[915] 0
x[916] 0
x[917] 1
x[918] 0
x[919] 0
x[920] 0
x[921] 0
x[922] 0
x[923] 1
x[924] 0
x[925] 0
x[926] 0
x[927] 1
x[928] 0
x[929] 0
x[930] 0
x[931] 0
x[932] 1
x[933] 0
x[934] 0
x[935] 1
x[936] 1
x[937] 1
x[938] 1
x[939] 0
x[940] 1
x[941] 1
x[942] 0
x[943] 0
x[944] 0
x[945] 0
x[946] 0
x[947] 1
x[948] 1
x[949] 1
x[950] 0
x[951] 1
x[952] 1
x[953] 0
x[954] 1
x[955] 0
x[956] 1
x[957] 0
x[958] 1
x[959] 1
x[960] 1
x[961] 1
x[962] 1
x[963] 0
x[964] 0
x[965] 1
x[966] 0
x[967] 0
x[968] 0
x[969] 1
x[970] 0
x[971] 1
x[972] 1
x[973] 1
x[974] 1
x[975] 0
x[976] 0
x[977] 1
x[978] 0
x[979] 0
x[980] 1
x[981] 0
x[982] 1
x[983] 0
x[984] 0
x[985] 0
x[986] 0
x[987] 0
x[988] 1
x[989] 1
x[990] 0
x[991] 1
x[992] 0
x[993] 0
x[994] 1
x[995] 1
x[996] 0
x[997] 1
x[998] 0
x[999] 1
